91
raw_data/mm-rcpsp/MMLIB50/J5019_1.mm
Time limit set to 60 seconds
Running CP solver
/home/omastto1/General-Optimization-Solver/src/solvers/mmrcpsp.py:42(stream:278:6): Warning: Cumulative expression 'pulse': height is zero, expression is zero everywhere.
                                                                                               VarCumulAtom_421 = pulse(task_0_mode_0, 0)
/home/omastto1/General-Optimization-Solver/src/solvers/mmrcpsp.py:42(stream:278:3906): Warning: Cumulative expression 'pulse': height is zero, expression is zero everywhere.
                                                                                                  VarCumulAtom_572 = pulse(task_51_mode_0, 0)
/home/omastto1/General-Optimization-Solver/src/solvers/mmrcpsp.py:42(stream:279:6): Warning: Cumulative expression 'pulse': height is zero, expression is zero everywhere.
                                                                                               VarCumulAtom_576 = pulse(task_0_mode_0, 0)
/home/omastto1/General-Optimization-Solver/src/solvers/mmrcpsp.py:42(stream:279:3912): Warning: Cumulative expression 'pulse': height is zero, expression is zero everywhere.
                                                                                                  VarCumulAtom_727 = pulse(task_51_mode_0, 0)
 ! --------------------------------------------------- CP Optimizer 20.1.0.0 --
 ! Minimization problem - 205 variables, 263 constraints
 ! TimeLimit            = 60
 ! Workers              = 14
 ! LogVerbosity         = Terse
 ! Initial process time : 0.01s (0.01s extraction + 0.00s propagation)
 !  . Log search space  : 516.6 (before), 516.6 (after)
 !  . Memory usage      : 1.3 MB (before), 1.3 MB (after)
 ! Using parallel search with 14 workers.
 ! ----------------------------------------------------------------------------
 !          Best Branches  Non-fixed    W       Branch decision
                        0        205                 -
 + New bound is 29
 ! Using iterative diving.
 ! Using temporal relaxation.
 *            40      811  0.80s        1      (gap is 27.50%)
 *            35     1033  0.80s        4      (gap is 17.14%)
 *            34     1542  1.40s        3      (gap is 14.71%)
 *            31     2404  1.40s        3      (gap is 6.45%)
 *            30    12440  4.30s        1      (gap is 3.33%)
 ! Using failure-directed search.
 *            29    62272  20.78s       9      (gap is 0.00%)
 ! ----------------------------------------------------------------------------
 ! Search completed, 6 solutions found.
 ! Best objective         : 29 (optimal - effective tol. is 0)
 ! Best bound             : 29
 ! ----------------------------------------------------------------------------
 ! Number of branches     : 1716195
 ! Number of fails        : 307111
 ! Total memory usage     : 18.8 MB (18.6 MB CP Optimizer + 0.2 MB Concert)
 ! Time spent in solve    : 21.34s (21.34s engine + 0.01s extraction)
 ! Search speed (br. / s) : 80459.2
 ! ----------------------------------------------------------------------------
task_0: (start=0, end=0, size=0, length=0)
Task 0 is scheduled in mode 0 from 0 to 0
task_1: (start=0, end=9, size=9, length=9)
Task 1 is scheduled in mode 2 from 0 to 9
task_2: (start=0, end=4, size=4, length=4)
Task 2 is scheduled in mode 1 from 0 to 4
task_3: (start=3, end=12, size=9, length=9)
Task 3 is scheduled in mode 2 from 3 to 12
task_4: (start=0, end=9, size=9, length=9)
Task 4 is scheduled in mode 2 from 0 to 9
task_5: (start=0, end=3, size=3, length=3)
Task 5 is scheduled in mode 0 from 0 to 3
task_6: (start=0, end=9, size=9, length=9)
Task 6 is scheduled in mode 2 from 0 to 9
task_7: (start=0, end=9, size=9, length=9)
Task 7 is scheduled in mode 2 from 0 to 9
task_8: (start=0, end=10, size=10, length=10)
Task 8 is scheduled in mode 2 from 0 to 10
task_9: (start=9, end=13, size=4, length=4)
Task 9 is scheduled in mode 2 from 9 to 13
task_10: (start=0, end=4, size=4, length=4)
Task 10 is scheduled in mode 1 from 0 to 4
task_11: (start=4, end=13, size=9, length=9)
Task 11 is scheduled in mode 1 from 4 to 13
task_12: (start=0, end=10, size=10, length=10)
Task 12 is scheduled in mode 2 from 0 to 10
task_13: (start=17, end=19, size=2, length=2)
Task 13 is scheduled in mode 1 from 17 to 19
task_14: (start=10, end=15, size=5, length=5)
Task 14 is scheduled in mode 0 from 10 to 15
task_15: (start=0, end=10, size=10, length=10)
Task 15 is scheduled in mode 2 from 0 to 10
task_16: (start=0, end=8, size=8, length=8)
Task 16 is scheduled in mode 1 from 0 to 8
task_17: (start=0, end=7, size=7, length=7)
Task 17 is scheduled in mode 2 from 0 to 7
task_18: (start=0, end=3, size=3, length=3)
Task 18 is scheduled in mode 1 from 0 to 3
task_19: (start=7, end=14, size=7, length=7)
Task 19 is scheduled in mode 2 from 7 to 14
task_20: (start=10, end=18, size=8, length=8)
Task 20 is scheduled in mode 2 from 10 to 18
task_21: (start=18, end=19, size=1, length=1)
Task 21 is scheduled in mode 0 from 18 to 19
task_22: (start=4, end=14, size=10, length=10)
Task 22 is scheduled in mode 2 from 4 to 14
task_23: (start=9, end=18, size=9, length=9)
Task 23 is scheduled in mode 2 from 9 to 18
task_24: (start=9, end=18, size=9, length=9)
Task 24 is scheduled in mode 2 from 9 to 18
task_25: (start=3, end=9, size=6, length=6)
Task 25 is scheduled in mode 2 from 3 to 9
task_26: (start=12, end=18, size=6, length=6)
Task 26 is scheduled in mode 2 from 12 to 18
task_27: (start=4, end=10, size=6, length=6)
Task 27 is scheduled in mode 2 from 4 to 10
task_28: (start=19, end=23, size=4, length=4)
Task 28 is scheduled in mode 1 from 19 to 23
task_29: (start=15, end=19, size=4, length=4)
Task 29 is scheduled in mode 1 from 15 to 19
task_30: (start=14, end=23, size=9, length=9)
Task 30 is scheduled in mode 2 from 14 to 23
task_31: (start=13, end=17, size=4, length=4)
Task 31 is scheduled in mode 2 from 13 to 17
task_32: (start=9, end=16, size=7, length=7)
Task 32 is scheduled in mode 2 from 9 to 16
task_33: (start=14, end=19, size=5, length=5)
Task 33 is scheduled in mode 1 from 14 to 19
task_34: (start=19, end=24, size=5, length=5)
Task 34 is scheduled in mode 2 from 19 to 24
task_35: (start=19, end=24, size=5, length=5)
Task 35 is scheduled in mode 1 from 19 to 24
task_36: (start=19, end=24, size=5, length=5)
Task 36 is scheduled in mode 1 from 19 to 24
task_37: (start=16, end=24, size=8, length=8)
Task 37 is scheduled in mode 1 from 16 to 24
task_38: (start=14, end=23, size=9, length=9)
Task 38 is scheduled in mode 2 from 14 to 23
task_39: (start=24, end=29, size=5, length=5)
Task 39 is scheduled in mode 1 from 24 to 29
task_40: (start=25, end=29, size=4, length=4)
Task 40 is scheduled in mode 0 from 25 to 29
task_41: (start=23, end=29, size=6, length=6)
Task 41 is scheduled in mode 2 from 23 to 29
task_42: (start=19, end=29, size=10, length=10)
Task 42 is scheduled in mode 2 from 19 to 29
task_43: (start=19, end=27, size=8, length=8)
Task 43 is scheduled in mode 2 from 19 to 27
task_44: (start=24, end=29, size=5, length=5)
Task 44 is scheduled in mode 1 from 24 to 29
task_45: (start=23, end=29, size=6, length=6)
Task 45 is scheduled in mode 2 from 23 to 29
task_46: (start=23, end=29, size=6, length=6)
Task 46 is scheduled in mode 2 from 23 to 29
task_47: (start=17, end=23, size=6, length=6)
Task 47 is scheduled in mode 2 from 17 to 23
task_48: (start=23, end=29, size=6, length=6)
Task 48 is scheduled in mode 2 from 23 to 29
task_49: (start=19, end=27, size=8, length=8)
Task 49 is scheduled in mode 2 from 19 to 27
task_50: (start=18, end=25, size=7, length=7)
Task 50 is scheduled in mode 1 from 18 to 25
task_51: (start=29, end=29, size=0, length=0)
Task 51 is scheduled in mode 0 from 29 to 29
Optimal solution found
Objective value: 29
Solution is optimal.
